* C: +++-+
* D: ++++-
* rowsum: (1,1,3,3)
* x1 ... xn is A, xn+1 ... x2n is B
-2 x1 +2 x4 -2 x8 +2 x10 = 0;
-2 x2 +2 x3 +2 x6 -2 x7 = 0;
2 x2 -2 x3 -2 x6 +2 x7 = 0;
2 x1 -2 x4 +2 x8 -2 x10 = 0;
2 x3 -2 x5 -2 x6 +2 x9 = 0;
-2 x1 +2 x2 -2 x7 +2 x8 = 0;
2 x1 -2 x2 +2 x7 -2 x8 = 0;
-2 x3 +2 x5 +2 x6 -2 x9 = 0;
4 x1 x7 -2 x1 -2 x7 -4 x6 x2 +2 x6 +2 x2 + 4 x2 x8 -2 x2 -2 x8 -4 x7 x3 +2 x7 +2 x3 + 4 x3 x9 -2 x3 -2 x9 -4 x8 x4 +2 x8 +2 x4 + 4 x4 x5 -2 x4 -2 x5 -4 x9 x0 +2 x9 +2 x0 + 4 x5 x6 -2 x5 -2 x6 -4 x10 x1 +2 x10 +2 x1 = -10;
4 x1 x8 -2 x1 -2 x8 -4 x6 x3 +2 x6 +2 x3 + 4 x2 x9 -2 x2 -2 x9 -4 x7 x4 +2 x7 +2 x4 + 4 x3 x5 -2 x3 -2 x5 -4 x8 x0 +2 x8 +2 x0 + 4 x4 x6 -2 x4 -2 x6 -4 x9 x1 +2 x9 +2 x1 + 4 x5 x7 -2 x5 -2 x7 -4 x10 x2 +2 x10 +2 x2 = -10;
4 x1 x9 -2 x1 -2 x9 -4 x6 x4 +2 x6 +2 x4 + 4 x2 x5 -2 x2 -2 x5 -4 x7 x0 +2 x7 +2 x0 + 4 x3 x6 -2 x3 -2 x6 -4 x8 x1 +2 x8 +2 x1 + 4 x4 x7 -2 x4 -2 x7 -4 x9 x2 +2 x9 +2 x2 + 4 x5 x8 -2 x5 -2 x8 -4 x10 x3 +2 x10 +2 x3 = -10;
4 x1 x5 -2 x1 -2 x5 -4 x6 x0 +2 x6 +2 x0 + 4 x2 x6 -2 x2 -2 x6 -4 x7 x1 +2 x7 +2 x1 + 4 x3 x7 -2 x3 -2 x7 -4 x8 x2 +2 x8 +2 x2 + 4 x4 x8 -2 x4 -2 x8 -4 x9 x3 +2 x9 +2 x3 + 4 x5 x9 -2 x5 -2 x9 -4 x10 x4 +2 x10 +2 x4 = -10;
2 x1 +2 x2 +2 x3 +2 x4 +2 x5 = 6;
2 x6 +2 x7 +2 x8 +2 x9 +2 x10 = 6;
4 x1 x2 -2 x1 -2 x2 +4 x6 x7 -2 x6 -2 x7 + 4 x2 x3 -2 x2 -2 x3 +4 x7 x8 -2 x7 -2 x8 + 4 x3 x4 -2 x3 -2 x4 +4 x8 x9 -2 x8 -2 x9 + 4 x4 x0 -2 x4 -2 x0 +4 x9 x5 -2 x9 -2 x5 + 4 x5 x1 -2 x5 -2 x1 +4 x10 x6 -2 x10 -2 x6 = -12;
4 x1 x3 -2 x1 -2 x3 +4 x6 x8 -2 x6 -2 x8 + 4 x2 x4 -2 x2 -2 x4 +4 x7 x9 -2 x7 -2 x9 + 4 x3 x0 -2 x3 -2 x0 +4 x8 x5 -2 x8 -2 x5 + 4 x4 x1 -2 x4 -2 x1 +4 x9 x6 -2 x9 -2 x6 + 4 x5 x2 -2 x5 -2 x2 +4 x10 x7 -2 x10 -2 x7 = -12;
4 x1 x4 -2 x1 -2 x4 +4 x6 x9 -2 x6 -2 x9 + 4 x2 x0 -2 x2 -2 x0 +4 x7 x5 -2 x7 -2 x5 + 4 x3 x1 -2 x3 -2 x1 +4 x8 x6 -2 x8 -2 x6 + 4 x4 x2 -2 x4 -2 x2 +4 x9 x7 -2 x9 -2 x7 + 4 x5 x3 -2 x5 -2 x3 +4 x10 x8 -2 x10 -2 x8 = -12;
4 x1 x0 -2 x1 -2 x0 +4 x6 x5 -2 x6 -2 x5 + 4 x2 x1 -2 x2 -2 x1 +4 x7 x6 -2 x7 -2 x6 + 4 x3 x2 -2 x3 -2 x2 +4 x8 x7 -2 x8 -2 x7 + 4 x4 x3 -2 x4 -2 x3 +4 x9 x8 -2 x9 -2 x8 + 4 x5 x4 -2 x5 -2 x4 +4 x10 x9 -2 x10 -2 x9 = -12;
